data;
param nombreJob := 2;
param nombreRessource := 3;
param duree := 1 4 2 5;
param capaciteRessource := 1 8 2 12 3 11;
param besoinRessource : 1 2 3 :=
                    1   2 6 10
                    2   1 4 2;
end;

